c defined variables: 6 15 23 28 32 41 45 54 58 66 71 75 83 87 92 96 100 109 113 122 126 130 138 143 147 151 160 164 168 177 181 190 194 203 214 221 228 235 245 249 256 260 267 271 283 287 291 295 299 306 310 317 321 328 335 339 343 347 357 375 376 380 384 397 401 408 417 418 421 422 425 426 427 428 431 432 433 434 437 438 439 440 443 445 446 449 450 451 452 453 454 457 458 460 461 462 465 466 467 468 469 470 473 475 476 477 478 481 482 483 484 485 486 489 490 491 492 493 494 497 498 499 500 501 502 505 507 508 509 510 513 514 515 516 517 518 519 520 523 524 525 526 527 528 529 530 533 534 535 536 537 538 539 540 545 546 547 548 549 550 553 554 555 556 557 558 559 560 563 564 565 566 567 568 569 570 573 574 575 576 577 578 579 580 583 585 586 587 588 589 590 594 596 597 598 599 600 603 604 606 607 608 609 610 611 612 615 616 617 620 621 622 623 624 627 629 630 631 632 633 634 635 636 639 640 641 642 643 644 645 646 647 648 649 650 653 654 655 657 658 659 660 661 662 663 664 668 669 670 671 672 673 674 675 676 677 678 679 680 681 685 687 688 689 690 691 692 693 694 695 696 697 698 699 700 703 
p cnf 2291 2691
a 396 400 368 324 316 331 327 338 334 342 346 363 350 259 252 248 244 74 78 65 69 52 61 48 57 39 44 121 134 374 371 356 263 353 360 53 62 70 79 91 104 108 117 270 379 383 404 266 279 274 207 202 411 407 185 176 198 189 155 142 172 159 26 35 13 18 22 31 1 4 9 667 684 255 313 320 387 286 282 298 294 290 302 305 309 206 201 193 184 197 188 171 158 180 175 40 49 5 10 2 27 36 14 19 217 220 210 213 231 238 224 227 234 241 112 107 103 90 95 99 82 86 125 116 393 390 141 150 146 154 120 129 133 137 167 163 0
e 3 7 8 11 12 16 17 20 21 24 25 29 30 33 34 37 38 42 43 46 47 50 51 55 56 59 60 63 64 67 68 72 73 76 77 80 81 84 85 88 89 93 94 97 98 101 102 105 106 110 111 114 115 118 119 123 124 127 128 131 132 135 136 139 140 144 145 148 149 152 153 156 157 161 162 165 166 169 170 173 174 178 179 182 183 186 187 191 192 195 196 199 200 204 205 208 209 211 212 215 216 218 219 222 223 225 226 229 230 232 233 236 237 239 240 242 243 246 247 250 251 253 254 257 258 261 262 264 265 268 269 272 273 276 277 278 280 281 284 285 288 289 292 293 296 297 300 301 303 304 307 308 311 312 314 315 318 319 322 323 325 326 329 330 332 333 336 337 340 341 344 345 348 349 351 352 354 355 358 359 361 362 365 366 367 369 370 372 373 377 378 381 382 385 386 388 389 391 392 394 395 398 399 402 403 405 406 409 410 412 413 414 415 416 419 420 423 424 429 430 435 436 441 442 444 447 448 455 456 459 463 464 471 472 474 479 480 487 488 495 496 503 504 506 511 512 521 522 531 532 541 542 544 551 552 561 562 571 572 581 582 584 591 592 595 601 602 605 613 614 619 625 626 628 637 638 651 652 656 665 666 682 683 686 701 702 6 15 23 28 32 41 45 54 58 66 71 75 83 87 92 96 100 109 113 122 126 130 138 143 147 151 160 164 168 177 181 190 194 203 214 221 228 235 245 249 256 260 267 271 283 287 291 295 299 306 310 317 321 328 335 339 343 347 357 375 376 380 384 397 401 408 417 418 421 422 425 426 427 428 431 432 433 434 437 438 439 440 443 445 446 449 450 451 452 453 454 457 458 460 461 462 465 466 467 468 469 470 473 475 476 477 478 481 482 483 484 485 486 489 490 491 492 493 494 497 498 499 500 501 502 505 507 508 509 510 513 514 515 516 517 518 519 520 523 524 525 526 527 528 529 530 533 534 535 536 537 538 539 540 545 546 547 548 549 550 553 554 555 556 557 558 559 560 563 564 565 566 567 568 569 570 573 574 575 576 577 578 579 580 583 585 586 587 588 589 590 594 596 597 598 599 600 603 604 606 607 608 609 610 611 612 615 616 617 620 621 622 623 624 627 629 630 631 632 633 634 635 636 639 640 641 642 643 644 645 646 647 648 649 650 653 654 655 657 658 659 660 661 662 663 664 668 669 670 671 672 673 674 675 676 677 678 679 680 681 685 687 688 689 690 691 692 693 694 695 696 697 698 699 700 703 2015 2016 2017 2018 2019 2020 2021 2022 2023 2024 2025 2026 2027 2028 2029 2030 2031 2032 2033 2034 2035 2036 2037 2038 2039 2040 2041 2042 2043 2044 2045 2046 2047 2048 2049 2050 2051 2052 2053 2054 2055 2056 2057 2058 2059 2060 2061 2062 2063 2064 2065 2066 2067 2068 2069 2070 2071 2072 2073 2074 2075 2076 2077 2078 2079 2080 2081 2082 2083 2084 2085 2086 2087 2088 2089 2090 2091 2092 2093 2094 2095 2096 2097 2098 2099 2100 2101 2102 2103 2104 2105 2106 2107 2108 2109 2110 2111 2112 2113 2114 2115 2116 2117 2118 2119 2120 2121 2122 2123 2124 2125 2126 2127 2128 2129 2130 2131 2132 2133 2134 2135 2136 2137 2138 2139 2140 2141 2142 2143 2144 2145 2146 2147 2148 2149 2150 2151 2152 2153 2154 2155 2156 2157 2158 2159 2160 2161 2162 2163 2164 2165 2166 2167 2168 2169 2170 2171 2172 2173 2174 2175 2176 2177 2178 2179 2180 2181 2182 2183 2184 2185 2186 2187 2188 2189 2190 2191 2192 2193 2194 2195 2196 2197 2198 2199 2200 2201 2202 2203 2204 2205 2206 2207 2208 2209 2210 2211 2212 2213 2214 2215 2216 2217 2218 2219 2220 2221 2222 2223 2224 2225 2226 2227 2228 2229 2230 2231 2232 2233 2234 2235 2236 2237 2238 2239 2240 2241 2242 2243 2244 2245 2246 2247 2248 2249 2250 2251 2252 2253 2254 2255 2256 2257 2258 2259 2260 2261 2262 2263 2264 2265 2266 2267 2268 2269 2270 2271 2272 2273 2274 2275 2276 2277 2278 2279 2280 2281 2282 2283 2284 2285 2286 2287 2288 2289 2290 2291 0
d 275 231 238 0
d 364 353 360 0
d 543 324 134 0
d 618 393 390 0
d 593 374 368 0
2016 -6 0
-2016 6 0
2017 -15 0
-2017 15 0
2018 -23 0
-2018 23 0
2019 -28 0
-2019 28 0
2020 -32 0
-2020 32 0
2021 -41 0
-2021 41 0
2022 -45 0
-2022 45 0
2023 -54 0
-2023 54 0
2024 -58 0
-2024 58 0
2025 -66 0
-2025 66 0
2026 -71 0
-2026 71 0
2027 -75 0
-2027 75 0
2028 -83 0
-2028 83 0
2029 -87 0
-2029 87 0
2030 -92 0
-2030 92 0
2031 -96 0
-2031 96 0
2032 -100 0
-2032 100 0
2033 -109 0
-2033 109 0
2034 -113 0
-2034 113 0
2035 -122 0
-2035 122 0
2036 -126 0
-2036 126 0
2037 -130 0
-2037 130 0
2038 -138 0
-2038 138 0
2039 -143 0
-2039 143 0
2040 -147 0
-2040 147 0
2041 -151 0
-2041 151 0
2042 -160 0
-2042 160 0
2043 -164 0
-2043 164 0
2044 -168 0
-2044 168 0
2045 -177 0
-2045 177 0
2046 -181 0
-2046 181 0
2047 -190 0
-2047 190 0
2048 -194 0
-2048 194 0
2049 -203 0
-2049 203 0
2050 -214 0
-2050 214 0
2051 -221 0
-2051 221 0
2052 -228 0
-2052 228 0
2053 -235 0
-2053 235 0
2054 -245 0
-2054 245 0
2055 -249 0
-2055 249 0
2056 -256 0
-2056 256 0
2057 -260 0
-2057 260 0
2058 -267 0
-2058 267 0
2059 -271 0
-2059 271 0
2060 -283 0
-2060 283 0
2061 -287 0
-2061 287 0
2062 -291 0
-2062 291 0
2063 -295 0
-2063 295 0
2064 -299 0
-2064 299 0
2065 -306 0
-2065 306 0
2066 -310 0
-2066 310 0
2067 -317 0
-2067 317 0
2068 -321 0
-2068 321 0
2069 -328 0
-2069 328 0
2070 -335 0
-2070 335 0
2071 -339 0
-2071 339 0
2072 -343 0
-2072 343 0
2073 -347 0
-2073 347 0
2074 -357 0
-2074 357 0
2075 -375 0
-2075 375 0
2076 -376 0
-2076 376 0
2077 -380 0
-2077 380 0
2078 -384 0
-2078 384 0
2079 -397 0
-2079 397 0
2080 -401 0
-2080 401 0
2083 -408 0
-2083 408 0
2084 -417 0
-2084 417 0
2085 -418 0
-2085 418 0
2086 -421 0
-2086 421 0
2087 -422 0
-2087 422 0
2088 -425 0
-2088 425 0
2089 -426 0
-2089 426 0
2090 -427 0
-2090 427 0
2091 -428 0
-2091 428 0
2092 -431 0
-2092 431 0
2093 -432 0
-2093 432 0
2094 -433 0
-2094 433 0
2095 -434 0
-2095 434 0
2096 -437 0
-2096 437 0
2097 -438 0
-2097 438 0
2098 -439 0
-2098 439 0
2099 -440 0
-2099 440 0
2100 -443 0
-2100 443 0
2101 -445 0
-2101 445 0
2102 -446 0
-2102 446 0
2103 -449 0
-2103 449 0
2104 -450 0
-2104 450 0
2105 -451 0
-2105 451 0
2106 -452 0
-2106 452 0
2107 -453 0
-2107 453 0
2108 -454 0
-2108 454 0
2109 -457 0
-2109 457 0
2110 -458 0
-2110 458 0
2111 -460 0
-2111 460 0
2112 -461 0
-2112 461 0
2113 -462 0
-2113 462 0
2114 -465 0
-2114 465 0
2115 -466 0
-2115 466 0
2116 -467 0
-2116 467 0
2117 -468 0
-2117 468 0
2118 -469 0
-2118 469 0
2119 -470 0
-2119 470 0
2120 -473 0
-2120 473 0
2121 -475 0
-2121 475 0
2122 -476 0
-2122 476 0
2123 -477 0
-2123 477 0
2124 -478 0
-2124 478 0
2125 -481 0
-2125 481 0
2126 -482 0
-2126 482 0
2127 -483 0
-2127 483 0
2128 -484 0
-2128 484 0
2129 -485 0
-2129 485 0
2130 -486 0
-2130 486 0
2131 -489 0
-2131 489 0
2132 -490 0
-2132 490 0
2133 -491 0
-2133 491 0
2134 -492 0
-2134 492 0
2135 -493 0
-2135 493 0
2136 -494 0
-2136 494 0
2137 -497 0
-2137 497 0
2138 -498 0
-2138 498 0
2139 -499 0
-2139 499 0
2140 -500 0
-2140 500 0
2141 -501 0
-2141 501 0
2142 -502 0
-2142 502 0
2143 -505 0
-2143 505 0
2144 -507 0
-2144 507 0
2145 -508 0
-2145 508 0
2146 -509 0
-2146 509 0
2147 -510 0
-2147 510 0
2148 -513 0
-2148 513 0
2149 -514 0
-2149 514 0
2150 -515 0
-2150 515 0
2151 -516 0
-2151 516 0
2152 -517 0
-2152 517 0
2153 -518 0
-2153 518 0
2154 -519 0
-2154 519 0
2155 -520 0
-2155 520 0
2156 -523 0
-2156 523 0
2157 -524 0
-2157 524 0
2158 -525 0
-2158 525 0
2159 -526 0
-2159 526 0
2160 -527 0
-2160 527 0
2161 -528 0
-2161 528 0
2162 -529 0
-2162 529 0
2163 -530 0
-2163 530 0
2164 -533 0
-2164 533 0
2165 -534 0
-2165 534 0
2166 -535 0
-2166 535 0
2167 -536 0
-2167 536 0
2168 -537 0
-2168 537 0
2169 -538 0
-2169 538 0
2170 -539 0
-2170 539 0
2171 -540 0
-2171 540 0
2172 -545 0
-2172 545 0
2173 -546 0
-2173 546 0
2174 -547 0
-2174 547 0
2175 -548 0
-2175 548 0
2176 -549 0
-2176 549 0
2177 -550 0
-2177 550 0
2178 -553 0
-2178 553 0
2179 -554 0
-2179 554 0
2180 -555 0
-2180 555 0
2181 -556 0
-2181 556 0
2182 -557 0
-2182 557 0
2183 -558 0
-2183 558 0
2184 -559 0
-2184 559 0
2185 -560 0
-2185 560 0
2186 -563 0
-2186 563 0
2187 -564 0
-2187 564 0
2188 -565 0
-2188 565 0
2189 -566 0
-2189 566 0
2190 -567 0
-2190 567 0
2191 -568 0
-2191 568 0
2192 -569 0
-2192 569 0
2193 -570 0
-2193 570 0
2194 -573 0
-2194 573 0
2195 -574 0
-2195 574 0
2196 -575 0
-2196 575 0
2197 -576 0
-2197 576 0
2198 -577 0
-2198 577 0
2199 -578 0
-2199 578 0
2200 -579 0
-2200 579 0
2201 -580 0
-2201 580 0
2202 -583 0
-2202 583 0
2203 -585 0
-2203 585 0
2204 -586 0
-2204 586 0
2205 -587 0
-2205 587 0
2206 -588 0
-2206 588 0
2207 -589 0
-2207 589 0
2208 -590 0
-2208 590 0
2209 -594 0
-2209 594 0
2210 -596 0
-2210 596 0
2211 -597 0
-2211 597 0
2212 -598 0
-2212 598 0
2213 -599 0
-2213 599 0
2214 -600 0
-2214 600 0
2215 -603 0
-2215 603 0
2216 -604 0
-2216 604 0
2217 -606 0
-2217 606 0
2218 -607 0
-2218 607 0
2219 -608 0
-2219 608 0
2220 -609 0
-2220 609 0
2221 -610 0
-2221 610 0
2222 -611 0
-2222 611 0
2223 -612 0
-2223 612 0
2224 -615 0
-2224 615 0
2225 -616 0
-2225 616 0
2226 -617 0
-2226 617 0
2227 -620 0
-2227 620 0
2228 -621 0
-2228 621 0
2229 -622 0
-2229 622 0
2230 -623 0
-2230 623 0
2231 -624 0
-2231 624 0
2232 -627 0
-2232 627 0
2233 -629 0
-2233 629 0
2234 -630 0
-2234 630 0
2235 -631 0
-2235 631 0
2236 -632 0
-2236 632 0
2237 -633 0
-2237 633 0
2238 -634 0
-2238 634 0
2239 -635 0
-2239 635 0
2240 -636 0
-2240 636 0
2082 -639 0
-2082 639 0
2241 -640 0
-2241 640 0
2242 -641 0
-2242 641 0
2243 -642 0
-2243 642 0
2244 -643 0
-2244 643 0
2245 -644 0
-2245 644 0
2246 -645 0
-2246 645 0
2247 -646 0
-2247 646 0
2248 -647 0
-2248 647 0
2249 -648 0
-2249 648 0
2250 -649 0
-2250 649 0
2251 -650 0
-2251 650 0
2252 -653 0
-2252 653 0
2253 -654 0
-2253 654 0
2254 -655 0
-2254 655 0
2255 -657 0
-2255 657 0
2256 -658 0
-2256 658 0
2257 -659 0
-2257 659 0
2258 -660 0
-2258 660 0
2259 -661 0
-2259 661 0
2260 -662 0
-2260 662 0
2261 -663 0
-2261 663 0
2262 -664 0
-2262 664 0
2263 -668 0
-2263 668 0
2264 -669 0
-2264 669 0
2265 -670 0
-2265 670 0
2266 -671 0
-2266 671 0
2267 -672 0
-2267 672 0
2268 -673 0
-2268 673 0
2269 -674 0
-2269 674 0
2270 -675 0
-2270 675 0
2271 -676 0
-2271 676 0
2272 -677 0
-2272 677 0
2273 -678 0
-2273 678 0
2274 -679 0
-2274 679 0
2275 -680 0
-2275 680 0
2276 -681 0
-2276 681 0
2277 -685 0
-2277 685 0
2278 -687 0
-2278 687 0
2279 -688 0
-2279 688 0
2280 -689 0
-2280 689 0
2281 -690 0
-2281 690 0
2282 -691 0
-2282 691 0
2283 -692 0
-2283 692 0
2284 -693 0
-2284 693 0
2285 -694 0
-2285 694 0
2286 -695 0
-2286 695 0
2287 -696 0
-2287 696 0
2288 -697 0
-2288 697 0
2289 -698 0
-2289 698 0
2290 -699 0
-2290 699 0
2291 -700 0
-2291 700 0
2015 -703 0
-2015 703 0
703 0
-703 413 702 0
-413 410 -412 0
-410 406 -409 0
-406 403 -405 0
-403 399 -402 0
-399 395 -398 0
-395 392 -394 0
-392 389 -391 0
-389 386 -388 0
-386 382 -385 0
-382 378 -381 0
-378 373 -377 0
-373 370 -372 0
-370 367 -369 0
-367 362 -366 0
-362 359 -361 0
-359 355 -358 0
-355 352 -354 0
-352 349 -351 0
-349 345 -348 0
-345 341 -344 0
-341 337 -340 0
-337 333 -336 0
-333 330 -332 0
-330 326 -329 0
-326 323 -325 0
-323 319 -322 0
-319 315 -318 0
-315 312 -314 0
-312 308 -311 0
-308 304 -307 0
-304 301 -303 0
-301 297 -300 0
-297 293 -296 0
-293 289 -292 0
-289 285 -288 0
-285 281 -284 0
-281 278 -280 0
-278 273 -277 0
-273 269 -272 0
-269 265 -268 0
-265 262 -264 0
-262 258 -261 0
-258 254 -257 0
-254 251 -253 0
-251 247 -250 0
-247 243 -246 0
-243 240 -242 0
-240 237 -239 0
-237 233 -236 0
-233 230 -232 0
-230 226 -229 0
-226 223 -225 0
-223 219 -222 0
-219 216 -218 0
-216 212 -215 0
-212 209 -211 0
-209 205 -208 0
-205 200 -204 0
-200 196 -199 0
-196 192 -195 0
-192 187 -191 0
-187 183 -186 0
-183 179 -182 0
-179 174 -178 0
-174 170 -173 0
-170 166 -169 0
-166 162 -165 0
-162 157 -161 0
-157 153 -156 0
-153 149 -152 0
-149 145 -148 0
-145 140 -144 0
-140 136 -139 0
-136 132 -135 0
-132 128 -131 0
-128 124 -127 0
-124 119 -123 0
-119 115 -118 0
-115 111 -114 0
-111 106 -110 0
-106 102 -105 0
-102 98 -101 0
-98 94 -97 0
-94 89 -93 0
-89 85 -88 0
-85 81 -84 0
-81 77 -80 0
-77 73 -76 0
-73 68 -72 0
-68 64 -67 0
-64 60 -63 0
-60 56 -59 0
-56 51 -55 0
-51 47 -50 0
-47 43 -46 0
-43 38 -42 0
-38 34 -37 0
-34 30 -33 0
-30 25 -29 0
-25 21 -24 0
-21 17 -20 0
-17 12 -16 0
-12 8 -11 0
-8 -3 -7 0
1 -2 3 0
-1 2 3 0
4 6 7 0
-4 -6 7 0
-1 5 6 0
-6 1 0
-6 -5 0
9 -10 11 0
-9 10 11 0
13 15 16 0
-13 -15 16 0
-9 14 15 0
-15 9 0
-15 -14 0
18 -19 20 0
-18 19 20 0
22 23 24 0
-22 -23 24 0
-4 -13 23 0
-23 4 0
-23 13 0
26 28 29 0
-26 -28 29 0
-18 27 28 0
-28 18 0
-28 -27 0
31 32 33 0
-31 -32 33 0
-13 -26 32 0
-32 13 0
-32 26 0
35 -36 37 0
-35 36 37 0
39 41 42 0
-39 -41 42 0
-35 40 41 0
-41 35 0
-41 -40 0
44 45 46 0
-44 -45 46 0
-26 -39 45 0
-45 26 0
-45 39 0
48 -49 50 0
-48 49 50 0
52 54 55 0
-52 -54 55 0
-48 53 54 0
-54 48 0
-54 -53 0
57 58 59 0
-57 -58 59 0
-39 -52 58 0
-58 39 0
-58 52 0
61 -62 63 0
-61 62 63 0
65 66 67 0
-65 -66 67 0
-22 -44 66 0
-66 22 0
-66 44 0
69 71 72 0
-69 -71 72 0
-61 70 71 0
-71 61 0
-71 -70 0
74 75 76 0
-74 -75 76 0
-31 -57 75 0
-75 31 0
-75 57 0
78 -79 80 0
-78 79 80 0
82 83 84 0
-82 -83 84 0
-52 -69 83 0
-83 52 0
-83 69 0
86 87 88 0
-86 -87 88 0
-44 -82 87 0
-87 44 0
-87 82 0
90 92 93 0
-90 -92 93 0
-78 91 92 0
-92 78 0
-92 -91 0
95 96 97 0
-95 -96 97 0
-69 -90 96 0
-96 69 0
-96 90 0
99 100 101 0
-99 -100 101 0
-57 -95 100 0
-100 57 0
-100 95 0
103 -104 105 0
-103 104 105 0
107 109 110 0
-107 -109 110 0
-103 108 109 0
-109 103 0
-109 -108 0
112 113 114 0
-112 -113 114 0
-90 -107 113 0
-113 90 0
-113 107 0
116 -117 118 0
-116 117 118 0
120 122 123 0
-120 -122 123 0
-116 121 122 0
-122 116 0
-122 -121 0
125 126 127 0
-125 -126 127 0
-107 -120 126 0
-126 107 0
-126 120 0
129 130 131 0
-129 -130 131 0
-82 -112 130 0
-130 82 0
-130 112 0
133 -134 135 0
-133 134 135 0
137 138 139 0
-137 -138 139 0
-95 -125 138 0
-138 95 0
-138 125 0
141 143 144 0
-141 -143 144 0
-133 142 143 0
-143 133 0
-143 -142 0
146 147 148 0
-146 -147 148 0
-120 -141 147 0
-147 120 0
-147 141 0
150 151 152 0
-150 -151 152 0
-112 -146 151 0
-151 112 0
-151 146 0
154 -155 156 0
-154 155 156 0
158 160 161 0
-158 -160 161 0
-154 159 160 0
-160 154 0
-160 -159 0
163 164 165 0
-163 -164 165 0
-141 -158 164 0
-164 141 0
-164 158 0
167 168 169 0
-167 -168 169 0
-125 -163 168 0
-168 125 0
-168 163 0
171 -172 173 0
-171 172 173 0
175 177 178 0
-175 -177 178 0
-171 176 177 0
-177 171 0
-177 -176 0
180 181 182 0
-180 -181 182 0
-158 -175 181 0
-181 158 0
-181 175 0
184 -185 186 0
-184 185 186 0
188 190 191 0
-188 -190 191 0
-184 189 190 0
-190 184 0
-190 -189 0
193 194 195 0
-193 -194 195 0
-175 -188 194 0
-194 175 0
-194 188 0
197 -198 199 0
-197 198 199 0
201 203 204 0
-201 -203 204 0
-197 202 203 0
-203 197 0
-203 -202 0
206 -207 208 0
-206 207 208 0
210 -2 211 0
-210 2 211 0
213 214 215 0
-213 -214 215 0
-210 5 214 0
-214 210 0
-214 -5 0
217 -10 218 0
-217 10 218 0
220 221 222 0
-220 -221 222 0
-217 14 221 0
-221 217 0
-221 -14 0
224 -19 225 0
-224 19 225 0
227 228 229 0
-227 -228 229 0
-213 -220 228 0
-228 213 0
-228 220 0
231 220 232 0
-231 -220 232 0
234 235 236 0
-234 -235 236 0
-224 27 235 0
-235 224 0
-235 -27 0
238 234 239 0
-238 -234 239 0
241 -36 242 0
-241 36 242 0
244 245 246 0
-244 -245 246 0
-241 40 245 0
-245 241 0
-245 -40 0
248 249 250 0
-248 -249 250 0
-234 -244 249 0
-249 234 0
-249 244 0
252 -49 253 0
-252 49 253 0
255 256 257 0
-255 -256 257 0
-252 53 256 0
-256 252 0
-256 -53 0
259 260 261 0
-259 -260 261 0
-244 -255 260 0
-260 244 0
-260 255 0
263 -62 264 0
-263 62 264 0
266 267 268 0
-266 -267 268 0
-227 -248 267 0
-267 227 0
-267 248 0
270 271 272 0
-270 -271 272 0
-263 70 271 0
-271 263 0
-271 -70 0
274 276 277 0
-274 -276 277 0
-275 -259 276 0
-276 275 0
-276 259 0
279 -79 280 0
-279 79 280 0
282 283 284 0
-282 -283 284 0
-255 -270 283 0
-283 255 0
-283 270 0
286 287 288 0
-286 -287 288 0
-248 -282 287 0
-287 248 0
-287 282 0
290 291 292 0
-290 -291 292 0
-279 91 291 0
-291 279 0
-291 -91 0
294 295 296 0
-294 -295 296 0
-270 -290 295 0
-295 270 0
-295 290 0
298 299 300 0
-298 -299 300 0
-259 -294 299 0
-299 259 0
-299 294 0
302 -104 303 0
-302 104 303 0
305 306 307 0
-305 -306 307 0
-302 108 306 0
-306 302 0
-306 -108 0
309 310 311 0
-309 -310 311 0
-290 -305 310 0
-310 290 0
-310 305 0
313 -117 314 0
-313 117 314 0
316 317 318 0
-316 -317 318 0
-313 121 317 0
-317 313 0
-317 -121 0
320 321 322 0
-320 -321 322 0
-305 -316 321 0
-321 305 0
-321 316 0
324 213 325 0
-324 -213 325 0
327 328 329 0
-327 -328 329 0
-282 -309 328 0
-328 282 0
-328 309 0
331 -134 332 0
-331 134 332 0
334 335 336 0
-334 -335 336 0
-294 -320 335 0
-335 294 0
-335 320 0
338 339 340 0
-338 -339 340 0
-331 142 339 0
-339 331 0
-339 -142 0
342 343 344 0
-342 -343 344 0
-316 -338 343 0
-343 316 0
-343 338 0
346 347 348 0
-346 -347 348 0
-309 -342 347 0
-347 309 0
-347 342 0
350 -155 351 0
-350 155 351 0
353 338 354 0
-353 -338 354 0
356 357 358 0
-356 -357 358 0
-350 159 357 0
-357 350 0
-357 -159 0
360 356 361 0
-360 -356 361 0
363 365 366 0
-363 -365 366 0
-320 -364 365 0
-365 320 0
-365 364 0
368 342 369 0
-368 -342 369 0
371 -172 372 0
-371 172 372 0
374 376 377 0
-374 -376 377 0
-356 -375 376 0
-371 -176 375 0
-376 356 0
-376 375 0
-375 371 0
-375 176 0
379 380 381 0
-379 -380 381 0
-371 176 380 0
-380 371 0
-380 -176 0
383 384 385 0
-383 -384 385 0
-356 -379 384 0
-384 356 0
-384 379 0
387 -185 388 0
-387 185 388 0
390 286 391 0
-390 -286 391 0
393 346 394 0
-393 -346 394 0
396 397 398 0
-396 -397 398 0
-387 189 397 0
-397 387 0
-397 -189 0
400 401 402 0
-400 -401 402 0
-379 -396 401 0
-401 379 0
-401 396 0
404 -198 405 0
-404 198 405 0
407 408 409 0
-407 -408 409 0
404 -202 408 0
-404 202 408 0
-408 -404 -202 0
-408 404 202 0
411 -207 412 0
-411 207 412 0
-702 683 0
-702 701 0
-683 666 0
-683 682 0
-666 652 0
-666 665 0
-652 638 0
-652 651 0
-638 626 0
-638 637 0
-626 614 0
-626 625 0
-614 602 0
-614 613 0
-602 592 0
-602 601 0
-592 582 0
-592 591 0
-582 572 0
-582 581 0
-572 562 0
-572 571 0
-562 552 0
-562 561 0
-552 542 0
-552 551 0
-542 532 0
-542 541 0
-532 522 0
-532 531 0
-522 512 0
-522 521 0
-512 504 0
-512 511 0
-504 496 0
-504 503 0
-496 488 0
-496 495 0
-488 480 0
-488 487 0
-480 472 0
-480 479 0
-472 464 0
-472 471 0
-464 456 0
-464 463 0
-456 448 0
-456 455 0
-448 442 0
-448 447 0
-442 436 0
-442 441 0
-436 430 0
-436 435 0
-430 424 0
-430 429 0
-424 420 0
-424 423 0
-420 416 0
-420 419 0
-416 414 0
-416 415 0
-414 -2 2 0
-414 2 -2 0
-415 -2 2 0
-415 2 -2 0
-419 -417 418 0
-419 417 -418 0
-417 210 0
-417 5 0
-418 1 0
-418 5 0
-210 -5 417 0
-1 -5 418 0
-423 -421 422 0
-423 421 -422 0
-421 10 0
-421 213 0
-422 10 0
-422 4 0
-10 -213 421 0
-10 -4 422 0
-429 -426 428 0
-429 426 -428 0
-426 213 0
-426 425 0
-425 217 0
-425 14 0
-428 4 0
-428 427 0
-427 9 0
-427 14 0
-213 -425 426 0
-217 -14 425 0
-4 -427 428 0
-9 -14 427 0
-435 -432 434 0
-435 432 -434 0
-432 220 0
-432 431 0
-431 19 0
-431 213 0
-434 13 0
-434 433 0
-433 19 0
-433 4 0
-220 -431 432 0
-19 -213 431 0
-13 -433 434 0
-19 -4 433 0
-441 -438 440 0
-441 438 -440 0
-438 437 0
-438 227 0
-437 224 0
-437 27 0
-440 439 0
-440 22 0
-439 18 0
-439 27 0
-437 -227 438 0
-224 -27 437 0
-439 -22 440 0
-18 -27 439 0
-447 -444 446 0
-447 444 -446 0
-444 443 0
-444 275 0
-443 36 0
-443 213 0
-446 445 0
-446 31 0
-445 36 0
-445 4 0
-443 -275 444 0
-36 -213 443 0
-445 -31 446 0
-36 -4 445 0
-455 -451 454 0
-455 451 -454 0
-451 227 0
-451 450 0
-450 234 0
-450 449 0
-449 241 0
-449 40 0
-454 22 0
-454 453 0
-453 26 0
-453 452 0
-452 35 0
-452 40 0
-227 -450 451 0
-234 -449 450 0
-241 -40 449 0
-22 -453 454 0
-26 -452 453 0
-35 -40 452 0
-463 -459 462 0
-463 459 -462 0
-459 275 0
-459 458 0
-458 244 0
-458 457 0
-457 49 0
-457 213 0
-462 31 0
-462 461 0
-461 39 0
-461 460 0
-460 49 0
-460 4 0
-275 -458 459 0
-244 -457 458 0
-49 -213 457 0
-31 -461 462 0
-39 -460 461 0
-49 -4 460 0
-471 -467 470 0
-471 467 -470 0
-467 248 0
-467 466 0
-466 465 0
-466 227 0
-465 252 0
-465 53 0
-470 44 0
-470 469 0
-469 468 0
-469 22 0
-468 48 0
-468 53 0
-248 -466 467 0
-465 -227 466 0
-252 -53 465 0
-44 -469 470 0
-468 -22 469 0
-48 -53 468 0
-479 -475 478 0
-479 475 -478 0
-475 259 0
-475 474 0
-474 473 0
-474 275 0
-473 62 0
-473 213 0
-478 57 0
-478 477 0
-477 476 0
-477 31 0
-476 62 0
-476 4 0
-259 -474 475 0
-473 -275 474 0
-62 -213 473 0
-57 -477 478 0
-476 -31 477 0
-62 -4 476 0
-487 -483 486 0
-487 483 -486 0
-483 482 0
-483 266 0
-482 255 0
-482 481 0
-481 263 0
-481 70 0
-486 485 0
-486 65 0
-485 52 0
-485 484 0
-484 61 0
-484 70 0
-482 -266 483 0
-255 -481 482 0
-263 -70 481 0
-485 -65 486 0
-52 -484 485 0
-61 -70 484 0
-495 -491 494 0
-495 491 -494 0
-491 490 0
-491 274 0
-490 270 0
-490 489 0
-489 79 0
-489 213 0
-494 493 0
-494 74 0
-493 69 0
-493 492 0
-492 79 0
-492 4 0
-490 -274 491 0
-270 -489 490 0
-79 -213 489 0
-493 -74 494 0
-69 -492 493 0
-79 -4 492 0
-503 -499 502 0
-503 499 -502 0
-499 498 0
-499 286 0
-498 497 0
-498 227 0
-497 279 0
-497 91 0
-502 501 0
-502 86 0
-501 500 0
-501 22 0
-500 78 0
-500 91 0
-498 -286 499 0
-497 -227 498 0
-279 -91 497 0
-501 -86 502 0
-500 -22 501 0
-78 -91 500 0
-511 -507 510 0
-511 507 -510 0
-507 506 0
-507 298 0
-506 505 0
-506 275 0
-505 104 0
-505 213 0
-510 509 0
-510 99 0
-509 508 0
-509 31 0
-508 104 0
-508 4 0
-506 -298 507 0
-505 -275 506 0
-104 -213 505 0
-509 -99 510 0
-508 -31 509 0
-104 -4 508 0
-521 -516 520 0
-521 516 -520 0
-516 266 0
-516 515 0
-515 282 0
-515 514 0
-514 290 0
-514 513 0
-513 302 0
-513 108 0
-520 65 0
-520 519 0
-519 82 0
-519 518 0
-518 90 0
-518 517 0
-517 103 0
-517 108 0
-266 -515 516 0
-282 -514 515 0
-290 -513 514 0
-302 -108 513 0
-65 -519 520 0
-82 -518 519 0
-90 -517 518 0
-103 -108 517 0
-531 -526 530 0
-531 526 -530 0
-526 274 0
-526 525 0
-525 294 0
-525 524 0
-524 305 0
-524 523 0
-523 117 0
-523 213 0
-530 74 0
-530 529 0
-529 95 0
-529 528 0
-528 107 0
-528 527 0
-527 117 0
-527 4 0
-274 -525 526 0
-294 -524 525 0
-305 -523 524 0
-117 -213 523 0
-74 -529 530 0
-95 -528 529 0
-107 -527 528 0
-117 -4 527 0
-541 -536 540 0
-541 536 -540 0
-536 286 0
-536 535 0
-535 309 0
-535 534 0
-534 533 0
-534 227 0
-533 313 0
-533 121 0
-540 86 0
-540 539 0
-539 112 0
-539 538 0
-538 537 0
-538 22 0
-537 116 0
-537 121 0
-286 -535 536 0
-309 -534 535 0
-533 -227 534 0
-313 -121 533 0
-86 -539 540 0
-112 -538 539 0
-537 -22 538 0
-116 -121 537 0
-551 -546 550 0
-551 546 -550 0
-546 298 0
-546 545 0
-545 320 0
-545 544 0
-544 543 0
-544 275 0
-550 99 0
-550 549 0
-549 125 0
-549 548 0
-548 547 0
-548 31 0
-547 134 0
-547 4 0
-298 -545 546 0
-320 -544 545 0
-543 -275 544 0
-99 -549 550 0
-125 -548 549 0
-547 -31 548 0
-134 -4 547 0
-561 -556 560 0
-561 556 -560 0
-556 327 0
-556 555 0
-555 554 0
-555 266 0
-554 316 0
-554 553 0
-553 331 0
-553 142 0
-560 129 0
-560 559 0
-559 558 0
-559 65 0
-558 120 0
-558 557 0
-557 133 0
-557 142 0
-327 -555 556 0
-554 -266 555 0
-316 -553 554 0
-331 -142 553 0
-129 -559 560 0
-558 -65 559 0
-120 -557 558 0
-133 -142 557 0
-571 -566 570 0
-571 566 -570 0
-566 334 0
-566 565 0
-565 564 0
-565 274 0
-564 338 0
-564 563 0
-563 155 0
-563 213 0
-570 137 0
-570 569 0
-569 568 0
-569 74 0
-568 141 0
-568 567 0
-567 155 0
-567 4 0
-334 -565 566 0
-564 -274 565 0
-338 -563 564 0
-155 -213 563 0
-137 -569 570 0
-568 -74 569 0
-141 -567 568 0
-155 -4 567 0
-581 -576 580 0
-581 576 -580 0
-576 346 0
-576 575 0
-575 574 0
-575 286 0
-574 573 0
-574 227 0
-573 350 0
-573 159 0
-580 150 0
-580 579 0
-579 578 0
-579 86 0
-578 577 0
-578 22 0
-577 154 0
-577 159 0
-346 -575 576 0
-574 -286 575 0
-573 -227 574 0
-350 -159 573 0
-150 -579 580 0
-578 -86 579 0
-577 -22 578 0
-154 -159 577 0
-591 -586 590 0
-591 586 -590 0
-586 363 0
-586 585 0
-585 584 0
-585 298 0
-584 583 0
-584 275 0
-583 172 0
-583 213 0
-590 167 0
-590 589 0
-589 588 0
-589 99 0
-588 587 0
-588 31 0
-587 172 0
-587 4 0
-363 -585 586 0
-584 -298 585 0
-583 -275 584 0
-172 -213 583 0
-167 -589 590 0
-588 -99 589 0
-587 -31 588 0
-172 -4 587 0
-601 -595 600 0
-601 595 -600 0
-595 593 0
-595 594 0
-594 266 0
-594 327 0
-600 598 0
-600 599 0
-598 146 0
-598 597 0
-597 158 0
-597 596 0
-596 171 0
-596 176 0
-599 65 0
-599 129 0
-593 -594 595 0
-266 -327 594 0
-598 -599 600 0
-146 -597 598 0
-158 -596 597 0
-171 -176 596 0
-65 -129 599 0
-613 -607 612 0
-613 607 -612 0
-607 605 0
-607 606 0
-605 364 0
-605 604 0
-604 379 0
-604 603 0
-603 185 0
-603 213 0
-606 274 0
-606 334 0
-612 610 0
-612 611 0
-610 163 0
-610 609 0
-609 175 0
-609 608 0
-608 185 0
-608 4 0
-611 74 0
-611 137 0
-605 -606 607 0
-364 -604 605 0
-379 -603 604 0
-185 -213 603 0
-274 -334 606 0
-610 -611 612 0
-163 -609 610 0
-175 -608 609 0
-185 -4 608 0
-74 -137 611 0
-625 -619 624 0
-625 619 -624 0
-619 617 0
-619 618 0
-617 383 0
-617 616 0
-616 615 0
-616 227 0
-615 387 0
-615 189 0
-624 622 0
-624 623 0
-622 180 0
-622 621 0
-621 620 0
-621 22 0
-620 184 0
-620 189 0
-623 86 0
-623 150 0
-617 -618 619 0
-383 -616 617 0
-615 -227 616 0
-387 -189 615 0
-622 -623 624 0
-180 -621 622 0
-620 -22 621 0
-184 -189 620 0
-86 -150 623 0
-637 -631 636 0
-637 631 -636 0
-631 629 0
-631 630 0
-629 400 0
-629 628 0
-628 627 0
-628 275 0
-627 198 0
-627 213 0
-630 298 0
-630 363 0
-636 634 0
-636 635 0
-634 193 0
-634 633 0
-633 632 0
-633 31 0
-632 198 0
-632 4 0
-635 99 0
-635 167 0
-629 -630 631 0
-400 -628 629 0
-627 -275 628 0
-198 -213 627 0
-298 -363 630 0
-634 -635 636 0
-193 -633 634 0
-632 -31 633 0
-198 -4 632 0
-99 -167 635 0
-651 -644 650 0
-651 644 -650 0
-644 641 0
-644 643 0
-641 640 0
-641 266 0
-640 396 0
-640 639 0
-639 404 0
-639 202 0
-643 327 0
-643 642 0
-642 342 0
-642 383 0
-650 647 0
-650 649 0
-647 646 0
-647 65 0
-646 188 0
-646 645 0
-645 197 0
-645 202 0
-649 129 0
-649 648 0
-648 146 0
-648 180 0
-641 -643 644 0
-640 -266 641 0
-396 -639 640 0
-404 -202 639 0
-327 -642 643 0
-342 -383 642 0
-647 -649 650 0
-646 -65 647 0
-188 -645 646 0
-197 -202 645 0
-129 -648 649 0
-146 -180 648 0
-665 -658 664 0
-665 658 -664 0
-658 655 0
-658 657 0
-655 654 0
-655 274 0
-654 407 0
-654 653 0
-653 207 0
-653 213 0
-657 334 0
-657 656 0
-656 364 0
-656 400 0
-664 661 0
-664 663 0
-661 660 0
-661 74 0
-660 201 0
-660 659 0
-659 207 0
-659 4 0
-663 137 0
-663 662 0
-662 163 0
-662 193 0
-655 -657 658 0
-654 -274 655 0
-407 -653 654 0
-207 -213 653 0
-334 -656 657 0
-364 -400 656 0
-661 -663 664 0
-660 -74 661 0
-201 -659 660 0
-207 -4 659 0
-137 -662 663 0
-163 -193 662 0
-682 -674 681 0
-682 674 -681 0
-674 670 0
-674 673 0
-670 669 0
-670 286 0
-669 668 0
-669 227 0
-668 411 0
-668 667 0
-673 346 0
-673 672 0
-672 383 0
-672 671 0
-671 396 0
-671 407 0
-681 677 0
-681 680 0
-677 676 0
-677 86 0
-676 675 0
-676 22 0
-675 206 0
-675 667 0
-680 150 0
-680 679 0
-679 180 0
-679 678 0
-678 188 0
-678 201 0
-670 -673 674 0
-669 -286 670 0
-668 -227 669 0
-411 -667 668 0
-346 -672 673 0
-383 -671 672 0
-396 -407 671 0
-677 -680 681 0
-676 -86 677 0
-675 -22 676 0
-206 -667 675 0
-150 -679 680 0
-180 -678 679 0
-188 -201 678 0
-701 -692 700 0
-701 692 -700 0
-692 687 0
-692 691 0
-687 686 0
-687 298 0
-686 685 0
-686 275 0
-685 684 0
-685 213 0
-691 363 0
-691 690 0
-690 400 0
-690 689 0
-689 407 0
-689 688 0
-688 411 0
-688 -667 0
-700 695 0
-700 699 0
-695 694 0
-695 99 0
-694 693 0
-694 31 0
-693 684 0
-693 4 0
-699 167 0
-699 698 0
-698 193 0
-698 697 0
-697 201 0
-697 696 0
-696 206 0
-696 -667 0
-687 -691 692 0
-686 -298 687 0
-685 -275 686 0
-684 -213 685 0
-363 -690 691 0
-400 -689 690 0
-407 -688 689 0
-411 667 688 0
-695 -699 700 0
-694 -99 695 0
-693 -31 694 0
-684 -4 693 0
-167 -698 699 0
-193 -697 698 0
-201 -696 697 0
-206 667 696 0
2015 0
1 -2016 0
-5 -2016 0
-1 5 2016 0
9 -2017 0
-14 -2017 0
-9 14 2017 0
13 -2018 0
4 -2018 0
-13 -4 2018 0
18 -2019 0
-27 -2019 0
-18 27 2019 0
26 -2020 0
13 -2020 0
-26 -13 2020 0
35 -2021 0
-40 -2021 0
-35 40 2021 0
39 -2022 0
26 -2022 0
-39 -26 2022 0
48 -2023 0
-53 -2023 0
-48 53 2023 0
52 -2024 0
39 -2024 0
-52 -39 2024 0
44 -2025 0
22 -2025 0
-44 -22 2025 0
61 -2026 0
-70 -2026 0
-61 70 2026 0
57 -2027 0
31 -2027 0
-57 -31 2027 0
69 -2028 0
52 -2028 0
-69 -52 2028 0
44 -2029 0
82 -2029 0
-44 -82 2029 0
78 -2030 0
-91 -2030 0
-78 91 2030 0
69 -2031 0
90 -2031 0
-69 -90 2031 0
57 -2032 0
95 -2032 0
-57 -95 2032 0
-108 -2033 0
103 -2033 0
108 -103 2033 0
107 -2034 0
90 -2034 0
-107 -90 2034 0
-121 -2035 0
116 -2035 0
121 -116 2035 0
107 -2036 0
120 -2036 0
-107 -120 2036 0
112 -2037 0
82 -2037 0
-112 -82 2037 0
95 -2038 0
125 -2038 0
-95 -125 2038 0
-142 -2039 0
133 -2039 0
142 -133 2039 0
141 -2040 0
120 -2040 0
-141 -120 2040 0
112 -2041 0
146 -2041 0
-112 -146 2041 0
-159 -2042 0
154 -2042 0
159 -154 2042 0
158 -2043 0
141 -2043 0
-158 -141 2043 0
125 -2044 0
163 -2044 0
-125 -163 2044 0
-176 -2045 0
171 -2045 0
176 -171 2045 0
158 -2046 0
175 -2046 0
-158 -175 2046 0
-189 -2047 0
184 -2047 0
189 -184 2047 0
188 -2048 0
175 -2048 0
-188 -175 2048 0
-202 -2049 0
197 -2049 0
202 -197 2049 0
-5 -2050 0
210 -2050 0
5 -210 2050 0
-14 -2051 0
217 -2051 0
14 -217 2051 0
220 -2052 0
213 -2052 0
-220 -213 2052 0
-27 -2053 0
224 -2053 0
27 -224 2053 0
-40 -2054 0
241 -2054 0
40 -241 2054 0
244 -2055 0
234 -2055 0
-244 -234 2055 0
252 -2056 0
-53 -2056 0
-252 53 2056 0
244 -2057 0
255 -2057 0
-244 -255 2057 0
248 -2058 0
227 -2058 0
-248 -227 2058 0
263 -2059 0
-70 -2059 0
-263 70 2059 0
270 -2060 0
255 -2060 0
-270 -255 2060 0
248 -2061 0
282 -2061 0
-248 -282 2061 0
-91 -2062 0
279 -2062 0
91 -279 2062 0
270 -2063 0
290 -2063 0
-270 -290 2063 0
259 -2064 0
294 -2064 0
-259 -294 2064 0
-108 -2065 0
302 -2065 0
108 -302 2065 0
290 -2066 0
305 -2066 0
-290 -305 2066 0
-121 -2067 0
313 -2067 0
121 -313 2067 0
316 -2068 0
305 -2068 0
-316 -305 2068 0
282 -2069 0
309 -2069 0
-282 -309 2069 0
320 -2070 0
294 -2070 0
-320 -294 2070 0
331 -2071 0
-142 -2071 0
-331 142 2071 0
316 -2072 0
338 -2072 0
-316 -338 2072 0
342 -2073 0
309 -2073 0
-342 -309 2073 0
350 -2074 0
-159 -2074 0
-350 159 2074 0
371 -2075 0
176 -2075 0
-371 -176 2075 0
356 -2076 0
375 -2076 0
-356 -375 2076 0
371 -2077 0
-176 -2077 0
-371 176 2077 0
356 -2078 0
379 -2078 0
-356 -379 2078 0
-189 -2079 0
387 -2079 0
189 -387 2079 0
396 -2080 0
379 -2080 0
-396 -379 2080 0
-404 -2081 0
-202 -2081 0
404 202 2081 0
404 -2082 0
202 -2082 0
-404 -202 2082 0
-2081 -2083 0
-2082 -2083 0
2081 2082 2083 0
5 -2084 0
210 -2084 0
-5 -210 2084 0
1 -2085 0
5 -2085 0
-1 -5 2085 0
10 -2086 0
213 -2086 0
-10 -213 2086 0
4 -2087 0
10 -2087 0
-4 -10 2087 0
14 -2088 0
217 -2088 0
-14 -217 2088 0
213 -2089 0
425 -2089 0
-213 -425 2089 0
9 -2090 0
14 -2090 0
-9 -14 2090 0
4 -2091 0
427 -2091 0
-4 -427 2091 0
19 -2092 0
213 -2092 0
-19 -213 2092 0
220 -2093 0
431 -2093 0
-220 -431 2093 0
4 -2094 0
19 -2094 0
-4 -19 2094 0
13 -2095 0
433 -2095 0
-13 -433 2095 0
27 -2096 0
224 -2096 0
-27 -224 2096 0
227 -2097 0
437 -2097 0
-227 -437 2097 0
18 -2098 0
27 -2098 0
-18 -27 2098 0
22 -2099 0
439 -2099 0
-22 -439 2099 0
36 -2100 0
213 -2100 0
-36 -213 2100 0
4 -2101 0
36 -2101 0
-4 -36 2101 0
31 -2102 0
445 -2102 0
-31 -445 2102 0
40 -2103 0
241 -2103 0
-40 -241 2103 0
234 -2104 0
449 -2104 0
-234 -449 2104 0
227 -2105 0
450 -2105 0
-227 -450 2105 0
35 -2106 0
40 -2106 0
-35 -40 2106 0
26 -2107 0
452 -2107 0
-26 -452 2107 0
22 -2108 0
453 -2108 0
-22 -453 2108 0
49 -2109 0
213 -2109 0
-49 -213 2109 0
244 -2110 0
457 -2110 0
-244 -457 2110 0
4 -2111 0
49 -2111 0
-4 -49 2111 0
39 -2112 0
460 -2112 0
-39 -460 2112 0
31 -2113 0
461 -2113 0
-31 -461 2113 0
252 -2114 0
53 -2114 0
-252 -53 2114 0
227 -2115 0
465 -2115 0
-227 -465 2115 0
248 -2116 0
466 -2116 0
-248 -466 2116 0
48 -2117 0
53 -2117 0
-48 -53 2117 0
22 -2118 0
468 -2118 0
-22 -468 2118 0
44 -2119 0
469 -2119 0
-44 -469 2119 0
62 -2120 0
213 -2120 0
-62 -213 2120 0
259 -2121 0
474 -2121 0
-259 -474 2121 0
62 -2122 0
4 -2122 0
-62 -4 2122 0
31 -2123 0
476 -2123 0
-31 -476 2123 0
57 -2124 0
477 -2124 0
-57 -477 2124 0
263 -2125 0
70 -2125 0
-263 -70 2125 0
255 -2126 0
481 -2126 0
-255 -481 2126 0
266 -2127 0
482 -2127 0
-266 -482 2127 0
61 -2128 0
70 -2128 0
-61 -70 2128 0
52 -2129 0
484 -2129 0
-52 -484 2129 0
65 -2130 0
485 -2130 0
-65 -485 2130 0
79 -2131 0
213 -2131 0
-79 -213 2131 0
270 -2132 0
489 -2132 0
-270 -489 2132 0
274 -2133 0
490 -2133 0
-274 -490 2133 0
79 -2134 0
4 -2134 0
-79 -4 2134 0
69 -2135 0
492 -2135 0
-69 -492 2135 0
74 -2136 0
493 -2136 0
-74 -493 2136 0
91 -2137 0
279 -2137 0
-91 -279 2137 0
227 -2138 0
497 -2138 0
-227 -497 2138 0
286 -2139 0
498 -2139 0
-286 -498 2139 0
78 -2140 0
91 -2140 0
-78 -91 2140 0
22 -2141 0
500 -2141 0
-22 -500 2141 0
86 -2142 0
501 -2142 0
-86 -501 2142 0
104 -2143 0
213 -2143 0
-104 -213 2143 0
298 -2144 0
506 -2144 0
-298 -506 2144 0
104 -2145 0
4 -2145 0
-104 -4 2145 0
31 -2146 0
508 -2146 0
-31 -508 2146 0
99 -2147 0
509 -2147 0
-99 -509 2147 0
108 -2148 0
302 -2148 0
-108 -302 2148 0
290 -2149 0
513 -2149 0
-290 -513 2149 0
282 -2150 0
514 -2150 0
-282 -514 2150 0
266 -2151 0
515 -2151 0
-266 -515 2151 0
108 -2152 0
103 -2152 0
-108 -103 2152 0
90 -2153 0
517 -2153 0
-90 -517 2153 0
82 -2154 0
518 -2154 0
-82 -518 2154 0
65 -2155 0
519 -2155 0
-65 -519 2155 0
117 -2156 0
213 -2156 0
-117 -213 2156 0
305 -2157 0
523 -2157 0
-305 -523 2157 0
294 -2158 0
524 -2158 0
-294 -524 2158 0
274 -2159 0
525 -2159 0
-274 -525 2159 0
117 -2160 0
4 -2160 0
-117 -4 2160 0
107 -2161 0
527 -2161 0
-107 -527 2161 0
95 -2162 0
528 -2162 0
-95 -528 2162 0
74 -2163 0
529 -2163 0
-74 -529 2163 0
121 -2164 0
313 -2164 0
-121 -313 2164 0
227 -2165 0
533 -2165 0
-227 -533 2165 0
309 -2166 0
534 -2166 0
-309 -534 2166 0
286 -2167 0
535 -2167 0
-286 -535 2167 0
121 -2168 0
116 -2168 0
-121 -116 2168 0
22 -2169 0
537 -2169 0
-22 -537 2169 0
112 -2170 0
538 -2170 0
-112 -538 2170 0
86 -2171 0
539 -2171 0
-86 -539 2171 0
320 -2172 0
544 -2172 0
-320 -544 2172 0
298 -2173 0
545 -2173 0
-298 -545 2173 0
134 -2174 0
4 -2174 0
-134 -4 2174 0
31 -2175 0
547 -2175 0
-31 -547 2175 0
125 -2176 0
548 -2176 0
-125 -548 2176 0
99 -2177 0
549 -2177 0
-99 -549 2177 0
331 -2178 0
142 -2178 0
-331 -142 2178 0
316 -2179 0
553 -2179 0
-316 -553 2179 0
266 -2180 0
554 -2180 0
-266 -554 2180 0
327 -2181 0
555 -2181 0
-327 -555 2181 0
142 -2182 0
133 -2182 0
-142 -133 2182 0
120 -2183 0
557 -2183 0
-120 -557 2183 0
65 -2184 0
558 -2184 0
-65 -558 2184 0
129 -2185 0
559 -2185 0
-129 -559 2185 0
155 -2186 0
213 -2186 0
-155 -213 2186 0
338 -2187 0
563 -2187 0
-338 -563 2187 0
274 -2188 0
564 -2188 0
-274 -564 2188 0
334 -2189 0
565 -2189 0
-334 -565 2189 0
155 -2190 0
4 -2190 0
-155 -4 2190 0
141 -2191 0
567 -2191 0
-141 -567 2191 0
74 -2192 0
568 -2192 0
-74 -568 2192 0
137 -2193 0
569 -2193 0
-137 -569 2193 0
350 -2194 0
159 -2194 0
-350 -159 2194 0
227 -2195 0
573 -2195 0
-227 -573 2195 0
286 -2196 0
574 -2196 0
-286 -574 2196 0
346 -2197 0
575 -2197 0
-346 -575 2197 0
159 -2198 0
154 -2198 0
-159 -154 2198 0
22 -2199 0
577 -2199 0
-22 -577 2199 0
86 -2200 0
578 -2200 0
-86 -578 2200 0
150 -2201 0
579 -2201 0
-150 -579 2201 0
172 -2202 0
213 -2202 0
-172 -213 2202 0
298 -2203 0
584 -2203 0
-298 -584 2203 0
363 -2204 0
585 -2204 0
-363 -585 2204 0
172 -2205 0
4 -2205 0
-172 -4 2205 0
31 -2206 0
587 -2206 0
-31 -587 2206 0
99 -2207 0
588 -2207 0
-99 -588 2207 0
167 -2208 0
589 -2208 0
-167 -589 2208 0
327 -2209 0
266 -2209 0
-327 -266 2209 0
176 -2210 0
171 -2210 0
-176 -171 2210 0
158 -2211 0
596 -2211 0
-158 -596 2211 0
146 -2212 0
597 -2212 0
-146 -597 2212 0
65 -2213 0
129 -2213 0
-65 -129 2213 0
598 -2214 0
599 -2214 0
-598 -599 2214 0
185 -2215 0
213 -2215 0
-185 -213 2215 0
379 -2216 0
603 -2216 0
-379 -603 2216 0
334 -2217 0
274 -2217 0
-334 -274 2217 0
605 -2218 0
606 -2218 0
-605 -606 2218 0
185 -2219 0
4 -2219 0
-185 -4 2219 0
175 -2220 0
608 -2220 0
-175 -608 2220 0
163 -2221 0
609 -2221 0
-163 -609 2221 0
74 -2222 0
137 -2222 0
-74 -137 2222 0
610 -2223 0
611 -2223 0
-610 -611 2223 0
189 -2224 0
387 -2224 0
-189 -387 2224 0
227 -2225 0
615 -2225 0
-227 -615 2225 0
383 -2226 0
616 -2226 0
-383 -616 2226 0
189 -2227 0
184 -2227 0
-189 -184 2227 0
22 -2228 0
620 -2228 0
-22 -620 2228 0
180 -2229 0
621 -2229 0
-180 -621 2229 0
86 -2230 0
150 -2230 0
-86 -150 2230 0
622 -2231 0
623 -2231 0
-622 -623 2231 0
198 -2232 0
213 -2232 0
-198 -213 2232 0
400 -2233 0
628 -2233 0
-400 -628 2233 0
363 -2234 0
298 -2234 0
-363 -298 2234 0
629 -2235 0
630 -2235 0
-629 -630 2235 0
198 -2236 0
4 -2236 0
-198 -4 2236 0
31 -2237 0
632 -2237 0
-31 -632 2237 0
193 -2238 0
633 -2238 0
-193 -633 2238 0
99 -2239 0
167 -2239 0
-99 -167 2239 0
634 -2240 0
635 -2240 0
-634 -635 2240 0
396 -2241 0
639 -2241 0
-396 -639 2241 0
266 -2242 0
640 -2242 0
-266 -640 2242 0
342 -2243 0
383 -2243 0
-342 -383 2243 0
327 -2244 0
642 -2244 0
-327 -642 2244 0
641 -2245 0
643 -2245 0
-641 -643 2245 0
202 -2246 0
197 -2246 0
-202 -197 2246 0
188 -2247 0
645 -2247 0
-188 -645 2247 0
65 -2248 0
646 -2248 0
-65 -646 2248 0
180 -2249 0
146 -2249 0
-180 -146 2249 0
129 -2250 0
648 -2250 0
-129 -648 2250 0
647 -2251 0
649 -2251 0
-647 -649 2251 0
207 -2252 0
213 -2252 0
-207 -213 2252 0
407 -2253 0
653 -2253 0
-407 -653 2253 0
274 -2254 0
654 -2254 0
-274 -654 2254 0
334 -2255 0
656 -2255 0
-334 -656 2255 0
655 -2256 0
657 -2256 0
-655 -657 2256 0
207 -2257 0
4 -2257 0
-207 -4 2257 0
201 -2258 0
659 -2258 0
-201 -659 2258 0
74 -2259 0
660 -2259 0
-74 -660 2259 0
193 -2260 0
163 -2260 0
-193 -163 2260 0
137 -2261 0
662 -2261 0
-137 -662 2261 0
661 -2262 0
663 -2262 0
-661 -663 2262 0
411 -2263 0
667 -2263 0
-411 -667 2263 0
227 -2264 0
668 -2264 0
-227 -668 2264 0
286 -2265 0
669 -2265 0
-286 -669 2265 0
396 -2266 0
407 -2266 0
-396 -407 2266 0
383 -2267 0
671 -2267 0
-383 -671 2267 0
346 -2268 0
672 -2268 0
-346 -672 2268 0
670 -2269 0
673 -2269 0
-670 -673 2269 0
667 -2270 0
206 -2270 0
-667 -206 2270 0
22 -2271 0
675 -2271 0
-22 -675 2271 0
86 -2272 0
676 -2272 0
-86 -676 2272 0
201 -2273 0
188 -2273 0
-201 -188 2273 0
180 -2274 0
678 -2274 0
-180 -678 2274 0
150 -2275 0
679 -2275 0
-150 -679 2275 0
677 -2276 0
680 -2276 0
-677 -680 2276 0
684 -2277 0
213 -2277 0
-684 -213 2277 0
298 -2278 0
686 -2278 0
-298 -686 2278 0
411 -2279 0
-667 -2279 0
-411 667 2279 0
407 -2280 0
688 -2280 0
-407 -688 2280 0
400 -2281 0
689 -2281 0
-400 -689 2281 0
363 -2282 0
690 -2282 0
-363 -690 2282 0
687 -2283 0
691 -2283 0
-687 -691 2283 0
4 -2284 0
684 -2284 0
-4 -684 2284 0
31 -2285 0
693 -2285 0
-31 -693 2285 0
99 -2286 0
694 -2286 0
-99 -694 2286 0
-667 -2287 0
206 -2287 0
667 -206 2287 0
201 -2288 0
696 -2288 0
-201 -696 2288 0
193 -2289 0
697 -2289 0
-193 -697 2289 0
167 -2290 0
698 -2290 0
-167 -698 2290 0
695 -2291 0
699 -2291 0
-695 -699 2291 0
